150 7567
1 98 103 34 82 95 107 7 84 30 63 3 62 149 125 22 104 4 150 21 78 15 16 111 105 52 33 126 93 35 96 89 8 124 146 56 83 81 110 47 120 139 40 53 12 118 24 127 69 36 61 11 148 130 60 66 17 140 117 129 27 31 123 74 13 106 91 119 68 128 45 71 115 44 64 112 136 145 144 147 49 72 14 80 122 32 67 43 109 51 20 25 141 58 55 135 86 29 2 37 28 42 9 6 19 99 114 102 108 70 50 137 132 65 85 142 18 75 143 100 5 97 26 90 46 92 54 138 134 116 41 57 39 101 38 23 131 77 133 59 79 121 88 94 10 113 48 73 76 87 
